Results/Experiment 1 Results/Existing Benchmark/RES_20/i-20-25-3.txt
solutions: 1 nodes: 1  modelTime: 131  solveTime: 13  totalTime: 146  modelSize: 7358  readTime: 2 matchingSize: 8
