Results/Experiment 2 Results/Existing Benchmark/i-20-25-3.lp
clingo version 5.4.0
Reading from tempSRTISolver.lp ...
Solving...
Answer: 1
matched(15,1) matched(8,2) matched(13,3) matched(16,6) matched(9,7) matched(2,8) matched(7,9) matched(11,10) matched(10,11) matched(19,12) matched(3,13) matched(17,14) matched(1,15) matched(6,16) matched(14,17) matched(12,19) aSingle(4) aSingle(5) aSingle(18) aSingle(20)
Optimization: 31
OPTIMUM FOUND

Models       : 1
  Optimum    : yes
Optimization : 31
Calls        : 1
Time         : 0.008s (Solving: 0.00s 1st Model: 0.00s Unsat: 0.00s)
CPU Time     : 0.004s
